NAME /Users/henri/Research/solvers/instances/idol-instances/robust/collection/uflp_Cheng_et_al_2021/Cap_F15_C25_d100/uncertainty_sets/gamma-2_00
ROWS
 N  OBJ
 L  budget
COLUMNS
    MARKER    'MARKER'                 'INTORG'
    u_0        OBJ        0
    u_0        budget     1
    u_1        OBJ        0
    u_1        budget     1
    u_2        OBJ        0
    u_2        budget     1
    u_3        OBJ        0
    u_3        budget     1
    u_4        OBJ        0
    u_4        budget     1
    u_5        OBJ        0
    u_5        budget     1
    u_6        OBJ        0
    u_6        budget     1
    u_7        OBJ        0
    u_7        budget     1
    u_8        OBJ        0
    u_8        budget     1
    u_9        OBJ        0
    u_9        budget     1
    u_10       OBJ        0
    u_10       budget     1
    u_11       OBJ        0
    u_11       budget     1
    u_12       OBJ        0
    u_12       budget     1
    u_13       OBJ        0
    u_13       budget     1
    u_14       OBJ        0
    u_14       budget     1
    MARKER    'MARKER'                 'INTEND'
RHS
    RHS       budget     2
BOUNDS
 LI BND       u_0        0
 UI BND       u_0        1
 LI BND       u_1        0
 UI BND       u_1        1
 LI BND       u_2        0
 UI BND       u_2        1
 LI BND       u_3        0
 UI BND       u_3        1
 LI BND       u_4        0
 UI BND       u_4        1
 LI BND       u_5        0
 UI BND       u_5        1
 LI BND       u_6        0
 UI BND       u_6        1
 LI BND       u_7        0
 UI BND       u_7        1
 LI BND       u_8        0
 UI BND       u_8        1
 LI BND       u_9        0
 UI BND       u_9        1
 LI BND       u_10       0
 UI BND       u_10       1
 LI BND       u_11       0
 UI BND       u_11       1
 LI BND       u_12       0
 UI BND       u_12       1
 LI BND       u_13       0
 UI BND       u_13       1
 LI BND       u_14       0
 UI BND       u_14       1
ENDATA
